benchmarks_CP/INST_49x49/40/inst49x49_40_59.dzn
S=7;
start=[|
-1,	45,	-1,	-1,	14,	-1,	-1,	46,	3,	-1,	-1,	-1,	48,	18,	-1,	-1,	-1,	33,	43,	-1,	-1,	32,	11,	49,	-1,	-1,	-1,	26,	27,	-1,	-1,	-1,	6,	16,	-1,	5,	-1,	-1,	35,	13,	37,	34,	20,	47,	25,	-1,	-1,	-1,	-1|
38,	-1,	40,	-1,	-1,	21,	-1,	32,	-1,	-1,	-1,	43,	-1,	-1,	7,	-1,	-1,	-1,	15,	-1,	-1,	-1,	-1,	35,	-1,	-1,	23,	28,	-1,	-1,	-1,	1,	17,	-1,	24,	-1,	-1,	14,	-1,	3,	-1,	-1,	5,	6,	4,	-1,	-1,	-1,	-1|
-1,	47,	27,	7,	-1,	-1,	-1,	-1,	5,	12,	-1,	-1,	34,	20,	37,	-1,	-1,	45,	-1,	25,	-1,	-1,	10,	-1,	42,	-1,	44,	13,	-1,	33,	-1,	-1,	43,	-1,	-1,	24,	-1,	-1,	-1,	26,	-1,	21,	23,	18,	8,	39,	-1,	-1,	-1|
-1,	-1,	23,	-1,	44,	48,	-1,	-1,	-1,	-1,	-1,	14,	35,	45,	42,	-1,	20,	-1,	8,	16,	-1,	34,	-1,	-1,	-1,	-1,	12,	29,	-1,	-1,	-1,	-1,	41,	5,	32,	1,	-1,	-1,	-1,	11,	-1,	-1,	40,	-1,	-1,	22,	-1,	-1,	-1|
-1,	41,	-1,	25,	22,	-1,	-1,	15,	-1,	-1,	-1,	6,	44,	33,	32,	11,	-1,	-1,	5,	-1,	-1,	-1,	37,	-1,	-1,	-1,	17,	-1,	14,	-1,	12,	-1,	21,	-1,	-1,	-1,	-1,	19,	-1,	7,	30,	23,	28,	45,	38,	-1,	13,	-1,	48|
-1,	18,	32,	17,	-1,	-1,	-1,	-1,	37,	-1,	13,	23,	-1,	39,	-1,	46,	-1,	-1,	24,	-1,	4,	-1,	-1,	-1,	22,	-1,	41,	-1,	48,	-1,	-1,	-1,	47,	-1,	20,	-1,	-1,	-1,	-1,	-1,	-1,	-1,	1,	11,	-1,	-1,	27,	35,	-1|
-1,	-1,	-1,	-1,	10,	-1,	28,	42,	-1,	-1,	-1,	-1,	-1,	17,	-1,	-1,	-1,	-1,	30,	14,	-1,	25,	45,	-1,	31,	46,	-1,	-1,	34,	-1,	-1,	37,	-1,	22,	18,	-1,	20,	-1,	-1,	40,	47,	44,	-1,	41,	16,	24,	-1,	-1,	-1|
1,	17,	-1,	34,	-1,	-1,	48,	-1,	-1,	-1,	-1,	47,	15,	25,	-1,	22,	-1,	-1,	7,	-1,	-1,	-1,	-1,	-1,	14,	12,	3,	19,	9,	46,	-1,	-1,	-1,	-1,	-1,	-1,	-1,	6,	24,	-1,	-1,	42,	-1,	-1,	-1,	30,	-1,	-1,	-1|
43,	8,	10,	-1,	6,	-1,	-1,	-1,	-1,	-1,	48,	-1,	-1,	38,	-1,	31,	-1,	25,	-1,	24,	-1,	-1,	41,	26,	35,	-1,	-1,	-1,	-1,	29,	-1,	21,	-1,	-1,	-1,	-1,	-1,	-1,	-1,	-1,	7,	-1,	-1,	12,	-1,	5,	23,	-1,	-1|
24,	26,	-1,	22,	-1,	-1,	-1,	-1,	-1,	44,	4,	-1,	-1,	9,	35,	14,	-1,	-1,	-1,	12,	-1,	-1,	-1,	10,	-1,	27,	-1,	-1,	15,	-1,	25,	-1,	-1,	28,	-1,	-1,	32,	13,	-1,	-1,	49,	-1,	38,	-1,	31,	-1,	34,	-1,	41|
-1,	40,	20,	-1,	-1,	44,	-1,	-1,	31,	30,	42,	-1,	22,	7,	38,	-1,	-1,	10,	17,	18,	15,	-1,	46,	-1,	-1,	28,	-1,	-1,	-1,	-1,	45,	-1,	-1,	-1,	26,	-1,	-1,	-1,	-1,	-1,	-1,	-1,	-1,	-1,	6,	-1,	-1,	-1,	35|
-1,	-1,	9,	30,	-1,	-1,	-1,	-1,	-1,	-1,	-1,	-1,	-1,	27,	-1,	-1,	48,	-1,	-1,	37,	33,	-1,	34,	8,	-1,	-1,	-1,	-1,	41,	18,	-1,	31,	3,	-1,	6,	-1,	25,	39,	12,	-1,	26,	22,	17,	1,	-1,	13,	-1,	-1,	-1|
-1,	-1,	31,	13,	-1,	5,	-1,	-1,	-1,	-1,	-1,	-1,	-1,	19,	-1,	-1,	42,	21,	-1,	-1,	23,	-1,	-1,	18,	-1,	15,	-1,	-1,	4,	-1,	24,	30,	-1,	-1,	38,	-1,	-1,	43,	33,	8,	-1,	37,	-1,	14,	11,	26,	-1,	-1,	-1|
-1,	38,	-1,	3,	-1,	-1,	47,	24,	13,	-1,	28,	-1,	-1,	-1,	-1,	-1,	11,	-1,	-1,	-1,	-1,	-1,	-1,	31,	-1,	-1,	-1,	-1,	16,	-1,	-1,	-1,	-1,	39,	-1,	4,	-1,	-1,	-1,	-1,	-1,	35,	-1,	-1,	-1,	45,	-1,	-1,	-1|
31,	-1,	-1,	-1,	46,	38,	-1,	-1,	-1,	-1,	45,	-1,	-1,	-1,	48,	-1,	-1,	8,	-1,	-1,	-1,	14,	13,	-1,	6,	-1,	-1,	-1,	23,	17,	-1,	-1,	-1,	-1,	10,	-1,	4,	3,	7,	33,	-1,	41,	-1,	-1,	-1,	1,	-1,	-1,	-1|
-1,	-1,	-1,	-1,	30,	-1,	-1,	-1,	-1,	-1,	-1,	-1,	-1,	23,	-1,	-1,	32,	-1,	11,	-1,	6,	19,	17,	12,	43,	5,	2,	47,	-1,	-1,	-1,	15,	-1,	-1,	-1,	-1,	-1,	46,	-1,	37,	18,	1,	-1,	-1,	-1,	-1,	-1,	-1,	-1|
-1,	49,	-1,	-1,	-1,	9,	41,	22,	36,	40,	-1,	-1,	1,	42,	-1,	-1,	15,	7,	23,	-1,	-1,	-1,	-1,	-1,	45,	-1,	-1,	37,	3,	-1,	-1,	4,	-1,	-1,	-1,	29,	-1,	-1,	-1,	-1,	-1,	2,	30,	24,	-1,	-1,	-1,	6,	-1|
17,	-1,	48,	-1,	40,	-1,	-1,	-1,	-1,	-1,	38,	-1,	-1,	15,	-1,	1,	30,	-1,	37,	-1,	47,	-1,	-1,	21,	23,	3,	20,	-1,	29,	-1,	-1,	-1,	-1,	6,	-1,	-1,	8,	45,	26,	-1,	34,	24,	9,	-1,	-1,	-1,	36,	14,	10|
-1,	44,	33,	-1,	-1,	45,	6,	48,	21,	-1,	-1,	-1,	32,	46,	-1,	24,	10,	-1,	-1,	-1,	-1,	29,	-1,	36,	4,	-1,	-1,	-1,	-1,	49,	47,	-1,	-1,	7,	25,	-1,	-1,	15,	40,	-1,	35,	14,	2,	31,	3,	28,	41,	-1,	16|
-1,	23,	4,	-1,	-1,	-1,	42,	-1,	-1,	-1,	-1,	-1,	-1,	-1,	-1,	45,	-1,	-1,	-1,	-1,	-1,	-1,	15,	40,	-1,	41,	35,	24,	-1,	44,	27,	34,	-1,	46,	-1,	-1,	11,	-1,	-1,	-1,	-1,	19,	-1,	37,	43,	32,	-1,	-1,	25|
-1,	-1,	-1,	-1,	-1,	26,	-1,	-1,	-1,	14,	17,	37,	-1,	-1,	-1,	3,	-1,	46,	-1,	-1,	-1,	33,	-1,	-1,	-1,	-1,	10,	39,	-1,	-1,	-1,	-1,	-1,	21,	41,	-1,	-1,	49,	30,	25,	-1,	5,	-1,	-1,	-1,	23,	-1,	-1,	18|
-1,	-1,	22,	31,	41,	30,	-1,	14,	-1,	7,	-1,	-1,	-1,	-1,	-1,	-1,	17,	-1,	-1,	47,	-1,	-1,	1,	-1,	-1,	-1,	36,	-1,	-1,	-1,	-1,	20,	-1,	42,	-1,	-1,	-1,	-1,	10,	-1,	-1,	-1,	15,	29,	32,	-1,	6,	-1,	-1|
-1,	21,	-1,	-1,	20,	42,	-1,	-1,	-1,	6,	-1,	-1,	38,	13,	-1,	8,	-1,	-1,	39,	-1,	-1,	-1,	47,	9,	29,	-1,	-1,	-1,	-1,	-1,	46,	25,	-1,	-1,	-1,	-1,	-1,	2,	3,	24,	-1,	-1,	26,	-1,	-1,	-1,	-1,	-1,	34|
-1,	-1,	-1,	-1,	26,	-1,	44,	5,	-1,	-1,	-1,	4,	-1,	3,	-1,	37,	18,	34,	-1,	19,	-1,	10,	-1,	32,	20,	-1,	-1,	23,	-1,	28,	-1,	-1,	15,	-1,	-1,	-1,	-1,	25,	42,	-1,	-1,	13,	-1,	-1,	39,	-1,	-1,	1,	-1|
-1,	-1,	15,	-1,	-1,	-1,	13,	41,	10,	-1,	39,	-1,	-1,	-1,	-1,	-1,	25,	-1,	26,	-1,	5,	-1,	-1,	-1,	-1,	-1,	45,	48,	32,	8,	-1,	-1,	-1,	18,	-1,	43,	-1,	-1,	36,	-1,	-1,	20,	-1,	-1,	24,	-1,	-1,	-1,	-1|
-1,	-1,	-1,	-1,	39,	-1,	-1,	-1,	-1,	26,	20,	-1,	-1,	44,	-1,	-1,	-1,	-1,	-1,	-1,	-1,	5,	-1,	-1,	-1,	13,	14,	-1,	-1,	-1,	-1,	48,	4,	-1,	-1,	-1,	7,	-1,	-1,	-1,	-1,	-1,	42,	49,	-1,	-1,	3,	-1,	11|
-1,	-1,	25,	4,	-1,	-1,	34,	-1,	-1,	-1,	-1,	-1,	-1,	-1,	-1,	-1,	46,	38,	-1,	10,	32,	26,	27,	-1,	21,	-1,	-1,	35,	-1,	-1,	-1,	-1,	-1,	-1,	-1,	-1,	-1,	-1,	16,	47,	29,	-1,	-1,	13,	-1,	-1,	20,	-1,	-1|
-1,	-1,	-1,	23,	-1,	17,	49,	-1,	27,	24,	47,	-1,	-1,	-1,	15,	-1,	-1,	-1,	-1,	-1,	-1,	6,	39,	22,	-1,	2,	-1,	-1,	-1,	-1,	-1,	-1,	44,	19,	31,	-1,	45,	11,	8,	-1,	46,	-1,	-1,	-1,	-1,	-1,	-1,	-1,	-1|
-1,	-1,	13,	-1,	-1,	43,	-1,	-1,	-1,	37,	-1,	-1,	46,	-1,	-1,	-1,	-1,	42,	4,	-1,	-1,	22,	-1,	-1,	-1,	31,	-1,	-1,	35,	-1,	9,	32,	20,	-1,	-1,	7,	40,	-1,	-1,	12,	-1,	-1,	-1,	25,	1,	-1,	-1,	-1,	-1|
-1,	33,	5,	26,	-1,	-1,	-1,	-1,	-1,	-1,	-1,	29,	-1,	-1,	20,	36,	44,	-1,	35,	8,	-1,	15,	2,	47,	-1,	37,	25,	1,	31,	-1,	11,	39,	45,	-1,	-1,	41,	-1,	-1,	-1,	-1,	-1,	32,	-1,	9,	-1,	6,	30,	3,	22|
28,	25,	-1,	-1,	-1,	-1,	11,	-1,	35,	9,	26,	-1,	36,	47,	-1,	15,	21,	12,	-1,	41,	-1,	48,	-1,	-1,	-1,	16,	-1,	46,	-1,	-1,	-1,	-1,	-1,	-1,	-1,	-1,	27,	31,	43,	-1,	20,	-1,	-1,	23,	-1,	-1,	-1,	-1,	-1|
27,	-1,	-1,	-1,	-1,	-1,	-1,	21,	42,	-1,	15,	17,	-1,	-1,	9,	-1,	28,	37,	10,	-1,	7,	36,	-1,	-1,	32,	-1,	-1,	12,	30,	-1,	38,	-1,	5,	-1,	-1,	39,	24,	26,	1,	34,	-1,	25,	18,	2,	-1,	-1,	35,	20,	13|
39,	-1,	14,	-1,	12,	-1,	7,	-1,	20,	-1,	-1,	48,	-1,	-1,	-1,	-1,	-1,	-1,	2,	-1,	1,	21,	-1,	-1,	38,	35,	-1,	-1,	-1,	6,	28,	-1,	29,	3,	40,	46,	-1,	-1,	5,	-1,	-1,	-1,	-1,	32,	27,	37,	8,	-1,	-1|
-1,	-1,	-1,	-1,	35,	20,	-1,	8,	-1,	18,	32,	10,	12,	6,	-1,	25,	5,	-1,	-1,	31,	-1,	-1,	28,	11,	-1,	-1,	-1,	4,	-1,	-1,	-1,	24,	-1,	17,	1,	13,	-1,	16,	-1,	-1,	-1,	-1,	7,	-1,	29,	40,	-1,	-1,	-1|
-1,	-1,	-1,	16,	48,	41,	10,	-1,	19,	-1,	-1,	-1,	14,	-1,	-1,	-1,	-1,	32,	-1,	29,	-1,	20,	18,	13,	24,	-1,	34,	-1,	37,	-1,	49,	-1,	25,	23,	21,	-1,	44,	-1,	45,	35,	-1,	15,	11,	-1,	42,	-1,	-1,	-1,	-1|
-1,	16,	7,	-1,	-1,	-1,	-1,	-1,	-1,	46,	-1,	-1,	13,	-1,	-1,	-1,	-1,	-1,	-1,	-1,	-1,	-1,	29,	37,	47,	-1,	5,	-1,	-1,	-1,	-1,	-1,	-1,	27,	43,	2,	6,	30,	48,	-1,	-1,	-1,	-1,	34,	18,	-1,	28,	24,	1|
23,	6,	42,	-1,	21,	14,	8,	-1,	28,	-1,	-1,	-1,	-1,	1,	-1,	-1,	-1,	-1,	41,	-1,	-1,	-1,	-1,	-1,	-1,	-1,	18,	-1,	-1,	-1,	-1,	11,	-1,	45,	29,	-1,	26,	36,	-1,	-1,	-1,	-1,	-1,	39,	7,	35,	-1,	-1,	-1|
-1,	-1,	12,	-1,	37,	-1,	5,	-1,	-1,	43,	36,	22,	7,	-1,	-1,	-1,	47,	39,	18,	-1,	46,	28,	-1,	-1,	-1,	-1,	-1,	8,	-1,	21,	-1,	49,	-1,	25,	3,	-1,	-1,	40,	4,	-1,	13,	-1,	-1,	26,	19,	42,	10,	9,	-1|
-1,	-1,	-1,	43,	-1,	-1,	-1,	-1,	-1,	-1,	-1,	-1,	16,	-1,	-1,	-1,	2,	23,	45,	21,	-1,	-1,	-1,	34,	-1,	-1,	-1,	-1,	-1,	-1,	-1,	-1,	40,	20,	-1,	-1,	-1,	-1,	-1,	31,	-1,	-1,	3,	-1,	-1,	4,	-1,	25,	-1|
-1,	-1,	-1,	-1,	9,	22,	-1,	-1,	18,	-1,	23,	-1,	2,	37,	3,	-1,	-1,	-1,	-1,	-1,	-1,	43,	-1,	30,	-1,	-1,	31,	25,	38,	-1,	-1,	-1,	-1,	-1,	36,	-1,	-1,	-1,	34,	-1,	-1,	-1,	-1,	-1,	40,	-1,	-1,	33,	-1|
30,	15,	46,	29,	-1,	-1,	27,	-1,	47,	41,	-1,	-1,	19,	-1,	10,	-1,	26,	-1,	-1,	-1,	-1,	4,	-1,	-1,	49,	-1,	-1,	-1,	-1,	-1,	18,	-1,	-1,	-1,	-1,	-1,	-1,	17,	-1,	43,	42,	12,	-1,	-1,	-1,	14,	2,	-1,	38|
-1,	13,	-1,	-1,	28,	3,	-1,	-1,	-1,	-1,	-1,	-1,	-1,	-1,	-1,	-1,	19,	-1,	-1,	36,	-1,	35,	-1,	-1,	-1,	-1,	-1,	-1,	5,	-1,	-1,	-1,	-1,	-1,	-1,	-1,	-1,	-1,	-1,	32,	-1,	-1,	-1,	-1,	-1,	-1,	43,	45,	27|
42,	-1,	16,	-1,	-1,	1,	-1,	-1,	-1,	35,	19,	31,	-1,	-1,	-1,	44,	29,	9,	-1,	-1,	25,	37,	38,	-1,	18,	-1,	-1,	-1,	-1,	-1,	-1,	47,	-1,	49,	5,	26,	-1,	-1,	-1,	-1,	24,	48,	-1,	-1,	17,	-1,	-1,	-1,	-1|
-1,	-1,	6,	18,	-1,	-1,	9,	-1,	-1,	32,	-1,	-1,	29,	-1,	39,	17,	-1,	-1,	42,	46,	21,	-1,	33,	16,	-1,	36,	24,	5,	-1,	-1,	-1,	-1,	-1,	31,	-1,	-1,	1,	-1,	-1,	49,	43,	-1,	-1,	28,	-1,	-1,	44,	11,	47|
41,	20,	35,	-1,	-1,	-1,	21,	-1,	46,	-1,	8,	-1,	-1,	-1,	-1,	-1,	-1,	-1,	49,	-1,	-1,	44,	-1,	17,	-1,	-1,	39,	-1,	24,	2,	-1,	36,	-1,	-1,	48,	-1,	-1,	4,	-1,	-1,	-1,	-1,	-1,	5,	-1,	7,	-1,	-1,	-1|
34,	27,	-1,	14,	-1,	37,	26,	13,	-1,	-1,	6,	-1,	25,	-1,	19,	41,	24,	5,	32,	15,	-1,	11,	-1,	29,	-1,	-1,	-1,	21,	-1,	-1,	-1,	7,	-1,	-1,	-1,	47,	42,	-1,	44,	2,	-1,	39,	31,	-1,	-1,	-1,	-1,	-1,	46|
44,	-1,	-1,	-1,	13,	-1,	-1,	1,	-1,	-1,	5,	41,	-1,	-1,	-1,	-1,	-1,	35,	-1,	2,	10,	-1,	-1,	-1,	-1,	48,	-1,	-1,	-1,	-1,	32,	23,	46,	-1,	-1,	17,	19,	7,	14,	-1,	12,	-1,	-1,	-1,	-1,	-1,	-1,	-1,	21|
5,	-1,	29,	12,	2,	-1,	-1,	17,	-1,	-1,	-1,	40,	39,	-1,	-1,	-1,	-1,	-1,	-1,	-1,	-1,	41,	-1,	-1,	7,	-1,	-1,	-1,	-1,	-1,	-1,	27,	16,	-1,	19,	9,	35,	-1,	21,	-1,	-1,	30,	6,	-1,	26,	-1,	49,	32,	4|
-1,	-1,	-1,	33,	-1,	32,	-1,	-1,	-1,	-1,	37,	26,	42,	-1,	-1,	-1,	1,	-1,	-1,	-1,	38,	8,	-1,	-1,	2,	-1,	46,	-1,	-1,	-1,	-1,	-1,	11,	-1,	-1,	6,	-1,	-1,	-1,	-1,	31,	-1,	-1,	-1,	-1,	34,	-1,	-1,	39|];
