sudoku-ls/benchmarks_LEQ/INST_49x49/40/inst49x49_40_59.txt
7
1
12	45	2	-1	-1	36	-1	-1	-1	38	-1	9	48	18	-1	40	-1	-1	43	-1	19	-1	-1	49	-1	-1	-1	26	27	-1	29	28	6	-1	-1	5	-1	-1	35	-1	-1	-1	-1	-1	-1	44	-1	10	-1
-1	29	-1	-1	8	21	37	-1	-1	2	-1	43	-1	41	-1	34	22	-1	15	-1	27	47	-1	35	33	-1	23	-1	-1	-1	10	-1	17	-1	24	-1	-1	-1	25	3	45	36	5	-1	-1	-1	9	-1	-1
-1	47	27	-1	-1	4	30	29	5	-1	-1	-1	34	20	37	-1	-1	-1	-1	25	-1	40	-1	48	-1	-1	-1	13	-1	-1	-1	-1	-1	-1	35	24	-1	-1	-1	26	-1	21	23	18	8	39	-1	-1	17
-1	-1	-1	19	44	48	-1	-1	-1	28	21	-1	-1	45	-1	-1	20	-1	-1	-1	-1	-1	3	-1	-1	39	-1	29	-1	-1	31	-1	41	5	32	1	17	-1	-1	11	-1	-1	-1	-1	-1	22	-1	26	-1
-1	41	34	25	-1	35	43	-1	-1	-1	-1	-1	-1	-1	32	-1	36	47	5	-1	-1	2	37	1	9	20	17	27	14	-1	12	-1	-1	-1	4	10	46	19	-1	-1	-1	-1	-1	45	-1	-1	13	-1	48
16	18	-1	-1	42	33	31	10	-1	36	-1	-1	26	-1	21	-1	49	29	-1	-1	-1	38	-1	-1	22	-1	41	7	48	-1	-1	45	-1	40	20	-1	9	-1	6	-1	2	-1	1	11	-1	3	27	35	-1
3	5	-1	-1	10	-1	28	42	-1	8	11	-1	-1	-1	12	26	-1	-1	30	-1	-1	-1	-1	-1	31	-1	-1	15	-1	-1	-1	-1	-1	-1	-1	49	20	38	-1	-1	-1	-1	43	41	-1	24	33	-1	-1
-1	17	-1	34	11	-1	48	-1	26	-1	29	-1	-1	25	44	22	-1	-1	7	-1	-1	-1	-1	33	14	12	3	-1	9	46	23	-1	-1	-1	-1	31	-1	6	24	-1	-1	-1	-1	-1	-1	30	-1	-1	2
-1	-1	10	-1	-1	-1	-1	-1	-1	-1	-1	-1	3	38	-1	-1	45	-1	46	-1	13	-1	-1	26	-1	-1	9	-1	-1	-1	14	21	49	-1	22	-1	-1	27	19	-1	-1	40	33	12	-1	5	-1	-1	20
-1	-1	21	22	33	39	18	-1	8	-1	4	46	6	-1	35	14	3	-1	40	-1	-1	-1	5	-1	-1	-1	37	42	-1	43	-1	19	7	28	2	-1	32	13	-1	-1	49	-1	-1	-1	-1	29	34	-1	-1
29	-1	20	-1	-1	-1	-1	-1	31	30	-1	-1	-1	-1	-1	-1	-1	10	17	18	-1	-1	46	23	-1	-1	-1	-1	-1	47	45	-1	-1	-1	-1	-1	14	1	-1	-1	-1	-1	24	21	6	-1	-1	27	35
45	-1	-1	-1	-1	23	-1	36	43	-1	-1	-1	-1	27	-1	-1	-1	49	28	37	33	-1	34	8	-1	-1	47	-1	-1	18	40	-1	3	32	-1	21	-1	39	-1	29	-1	22	-1	-1	-1	13	-1	-1	15
25	46	-1	-1	-1	-1	-1	2	16	-1	35	-1	-1	19	47	-1	42	-1	-1	-1	-1	17	32	-1	40	15	7	-1	-1	-1	24	-1	27	-1	38	34	-1	43	33	8	48	37	-1	14	-1	-1	-1	22	3
14	-1	-1	3	-1	-1	-1	-1	13	33	-1	-1	-1	-1	-1	-1	-1	-1	34	-1	-1	-1	22	-1	-1	-1	49	-1	16	-1	20	17	-1	-1	-1	4	-1	-1	46	-1	-1	-1	8	44	9	-1	19	-1	-1
31	22	-1	-1	46	-1	25	-1	29	-1	-1	24	47	-1	-1	-1	-1	8	-1	27	-1	-1	13	28	-1	26	-1	-1	-1	-1	-1	-1	37	30	-1	12	-1	-1	-1	33	-1	41	-1	42	-1	1	15	-1	-1
-1	-1	3	8	-1	-1	-1	25	-1	-1	-1	-1	-1	-1	-1	-1	32	-1	-1	-1	6	-1	-1	-1	-1	-1	-1	-1	-1	20	-1	15	-1	-1	-1	-1	31	-1	9	-1	18	-1	-1	40	21	-1	48	-1	26
19	49	28	-1	18	9	-1	-1	-1	-1	-1	13	1	-1	25	43	15	-1	-1	20	-1	27	-1	44	-1	11	16	37	-1	-1	5	-1	48	-1	-1	29	21	-1	-1	17	-1	-1	30	24	-1	-1	-1	6	8
-1	-1	-1	-1	-1	12	-1	-1	44	-1	-1	-1	-1	-1	-1	1	-1	-1	-1	-1	47	-1	25	-1	-1	-1	-1	-1	29	31	-1	-1	42	-1	-1	-1	8	45	26	-1	-1	24	9	19	22	-1	-1	14	10
-1	-1	-1	5	34	-1	6	-1	-1	-1	-1	-1	-1	-1	-1	-1	10	-1	-1	-1	-1	29	42	36	-1	9	-1	-1	22	49	47	-1	-1	-1	-1	-1	-1	-1	-1	-1	-1	-1	-1	31	3	-1	41	-1	-1
10	23	-1	-1	-1	-1	-1	-1	-1	-1	-1	18	33	-1	-1	-1	-1	28	21	5	-1	7	-1	-1	-1	-1	35	24	-1	-1	-1	-1	9	-1	-1	-1	-1	-1	20	38	-1	19	-1	37	43	-1	-1	13	25
20	-1	-1	27	-1	26	-1	-1	9	-1	-1	37	8	35	36	-1	-1	-1	29	-1	-1	33	48	38	34	-1	-1	-1	28	-1	19	-1	-1	21	41	-1	-1	-1	-1	-1	-1	-1	-1	7	47	-1	-1	-1	-1
48	-1	-1	-1	41	30	33	-1	-1	-1	46	-1	11	12	49	-1	-1	24	-1	-1	43	-1	1	-1	28	25	-1	40	21	-1	-1	-1	23	-1	-1	-1	34	-1	-1	-1	-1	26	-1	-1	-1	-1	-1	-1	-1
40	-1	45	-1	20	-1	14	43	32	6	18	-1	38	13	-1	8	-1	31	39	-1	-1	49	-1	9	-1	-1	19	16	-1	-1	-1	25	-1	-1	11	-1	12	-1	-1	-1	22	33	-1	27	-1	-1	37	-1	-1
36	24	8	38	26	16	-1	-1	22	29	40	-1	21	3	-1	-1	18	-1	48	-1	11	-1	-1	-1	20	-1	-1	23	-1	28	7	-1	-1	-1	-1	-1	-1	-1	-1	-1	14	13	46	-1	-1	-1	47	1	-1
-1	11	-1	-1	3	-1	13	-1	10	-1	39	-1	-1	30	40	-1	-1	-1	-1	35	-1	-1	-1	46	-1	-1	45	48	32	8	6	-1	14	18	-1	43	49	44	-1	9	-1	20	22	-1	24	38	12	16	-1
-1	-1	-1	-1	-1	6	-1	31	45	-1	20	-1	-1	44	-1	27	-1	-1	-1	-1	-1	5	-1	-1	-1	-1	-1	-1	1	-1	33	48	4	-1	-1	-1	-1	41	37	21	32	-1	42	-1	2	-1	-1	-1	11
7	-1	25	-1	5	-1	-1	-1	-1	-1	-1	-1	17	49	45	-1	-1	38	-1	10	-1	-1	-1	-1	21	44	11	-1	-1	-1	22	-1	-1	-1	37	-1	18	23	-1	-1	29	31	41	-1	30	-1	-1	-1	40
-1	-1	43	23	-1	-1	-1	-1	27	-1	-1	-1	-1	-1	-1	-1	33	-1	-1	-1	-1	6	-1	-1	-1	-1	38	41	-1	-1	-1	-1	-1	19	-1	-1	-1	11	-1	-1	46	4	-1	-1	14	-1	-1	-1	5
-1	36	13	2	-1	-1	19	-1	34	-1	41	-1	46	-1	26	-1	-1	-1	4	-1	49	-1	23	-1	-1	-1	-1	-1	-1	-1	-1	-1	20	48	-1	-1	-1	-1	11	12	8	-1	-1	-1	1	-1	-1	-1	-1
18	-1	-1	-1	24	46	-1	-1	-1	13	-1	-1	-1	-1	-1	36	-1	-1	-1	-1	-1	-1	-1	47	-1	-1	25	-1	-1	34	-1	39	-1	-1	12	41	48	21	38	-1	-1	-1	-1	9	-1	-1	-1	3	22
-1	-1	-1	-1	1	-1	11	-1	-1	9	26	3	-1	-1	24	-1	-1	-1	22	41	17	-1	-1	-1	5	16	40	-1	-1	42	13	10	-1	2	8	37	-1	-1	43	30	-1	6	49	-1	45	33	-1	-1	-1
-1	31	-1	-1	-1	-1	-1	-1	-1	-1	-1	17	4	-1	-1	-1	-1	-1	10	-1	-1	36	-1	6	-1	33	-1	12	-1	16	-1	-1	5	-1	-1	-1	24	-1	1	-1	-1	-1	-1	2	-1	41	-1	-1	-1
39	42	-1	-1	12	-1	-1	-1	20	25	-1	48	45	11	-1	23	13	-1	2	-1	1	-1	-1	41	-1	35	26	-1	36	-1	28	-1	-1	-1	40	-1	-1	22	-1	4	-1	-1	16	32	-1	37	-1	15	-1
-1	-1	-1	-1	35	-1	-1	8	38	18	32	-1	12	-1	-1	-1	5	27	-1	-1	45	9	28	-1	-1	-1	-1	4	-1	-1	41	-1	-1	-1	-1	13	-1	-1	23	14	3	-1	7	48	-1	-1	-1	21	-1
6	4	-1	16	-1	41	-1	33	-1	1	-1	-1	-1	5	46	-1	-1	-1	38	-1	30	20	-1	-1	24	-1	-1	3	-1	-1	-1	-1	25	-1	-1	-1	44	9	-1	35	-1	-1	-1	-1	42	-1	26	31	-1
-1	16	-1	-1	32	-1	-1	12	-1	-1	-1	-1	-1	-1	-1	-1	-1	-1	-1	9	-1	-1	29	-1	47	-1	-1	-1	42	-1	-1	33	-1	27	43	-1	6	-1	-1	-1	21	8	-1	34	-1	-1	-1	-1	1
-1	-1	-1	44	-1	-1	-1	38	-1	-1	-1	-1	-1	-1	-1	12	34	13	-1	-1	-1	3	-1	2	16	10	18	-1	47	-1	-1	-1	-1	45	29	-1	-1	36	-1	5	-1	46	48	-1	-1	-1	-1	-1	-1
33	34	12	41	-1	-1	5	20	-1	43	36	-1	-1	-1	31	-1	47	39	-1	-1	46	-1	24	15	-1	17	-1	8	44	-1	2	49	30	-1	3	-1	-1	40	-1	-1	13	45	-1	26	19	-1	-1	-1	-1
-1	-1	19	43	-1	-1	36	-1	-1	-1	-1	-1	-1	-1	-1	-1	2	23	45	-1	8	-1	-1	-1	-1	42	6	-1	-1	-1	-1	-1	40	-1	-1	33	29	-1	-1	31	-1	-1	-1	30	-1	-1	-1	-1	-1
4	-1	-1	-1	-1	-1	-1	-1	18	-1	23	-1	-1	-1	-1	-1	-1	-1	-1	-1	-1	43	-1	30	46	32	-1	25	38	-1	8	-1	19	-1	36	14	10	-1	-1	1	-1	-1	-1	-1	-1	21	11	-1	-1
-1	-1	46	-1	25	31	27	-1	47	-1	-1	-1	-1	-1	10	-1	-1	-1	6	48	37	4	-1	-1	49	-1	-1	33	-1	-1	-1	35	24	1	28	44	-1	-1	-1	-1	42	-1	13	-1	-1	-1	2	-1	-1
2	-1	-1	48	-1	-1	-1	-1	17	-1	-1	-1	-1	-1	-1	-1	19	22	-1	-1	-1	-1	14	39	-1	-1	1	44	-1	-1	-1	6	31	15	23	-1	-1	-1	-1	32	-1	-1	-1	-1	-1	-1	-1	-1	-1
42	-1	16	46	-1	-1	-1	-1	-1	35	-1	31	-1	-1	28	-1	29	9	13	7	25	-1	38	-1	-1	34	15	45	-1	39	-1	-1	-1	-1	5	-1	-1	20	-1	-1	-1	-1	-1	-1	-1	-1	-1	-1	-1
-1	-1	-1	18	-1	-1	9	-1	14	-1	-1	38	29	-1	-1	-1	-1	26	42	46	-1	-1	-1	-1	-1	36	-1	5	-1	-1	-1	41	-1	-1	-1	-1	1	-1	-1	-1	-1	-1	-1	-1	23	20	44	-1	-1
41	-1	-1	11	-1	-1	21	-1	-1	3	8	-1	-1	-1	-1	-1	37	-1	49	34	22	-1	-1	-1	-1	23	-1	-1	-1	2	1	36	-1	-1	48	-1	33	4	-1	-1	-1	38	-1	5	-1	7	42	19	-1
34	-1	-1	-1	38	-1	-1	-1	-1	-1	-1	-1	-1	10	19	-1	24	5	-1	15	36	11	-1	29	3	49	-1	21	-1	-1	-1	-1	28	12	9	-1	-1	-1	-1	-1	-1	-1	31	-1	-1	-1	-1	18	-1
-1	-1	-1	-1	-1	-1	-1	-1	-1	20	5	-1	-1	34	-1	-1	16	35	31	-1	-1	-1	-1	-1	-1	-1	-1	22	40	-1	-1	23	-1	-1	15	-1	-1	7	-1	-1	12	-1	-1	-1	36	9	-1	37	-1
-1	28	-1	12	-1	24	-1	-1	15	47	-1	40	39	-1	11	18	43	3	-1	45	-1	41	20	-1	7	-1	13	31	25	-1	42	-1	-1	34	-1	9	35	-1	-1	-1	-1	-1	6	8	-1	-1	49	-1	-1
-1	-1	-1	-1	-1	-1	-1	-1	7	-1	-1	-1	42	-1	27	-1	1	-1	-1	-1	38	8	-1	-1	-1	47	46	-1	-1	22	-1	-1	-1	-1	-1	-1	-1	-1	-1	-1	-1	29	-1	35	13	34	24	-1	39
49 
1 15 34 35
40 13 47 20
22 24 5 30
4 41 19 25
39 15 49 37
33 30 44 3
22 10 16 6
19 27 27 48
4 2 26 1
38 47 30 45
2 34 38 6
24 23 41 42
46 8 35 24
31 49 15 22
14 6 44 39
15 19 7 45
1 20 16 23
41 31 31 33
19 19 34 26
13 28 32 48
8 23 13 18
32 10 46 44
41 48 31 44
10 1 39 38
19 35 11 46
26 10 23 43
24 36 32 1
42 5 2 28
26 15 29 38
6 23 5 41
28 35 34 20
38 43 35 18
18 20 49 4
35 27 15 10
42 22 12 7
20 4 34 49
9 34 40 14
32 31 39 28
22 40 31 8
42 21 7 40
42 25 49 39
11 11 42 10
34 29 24 26
11 6 31 23
10 40 24 49
16 38 12 45
27 40 47 4
12 17 10 48
15 16 13 12
